language ESSENCE' 1.0
$ minion Nodes: 7
$ minion TotalTime: 0.000659
$ Savile Row TotalTime: 0.231
letting fs_SetExplicit_Matrix1D_SetExplicit_SetOccurrence be [[[[false, true, true, true;int(5..8)], 
[true, false, true, true;int(5..8)];int(1..2)], 
[[false, true, true, true;int(5..8)], 
[true, false, true, true;int(5..8)];int(1..2)], 
[[false, true, true, true;int(5..8)], 
[true, false, true, true;int(5..8)];int(1..2)];int(2..4)];int(1..1)]
